p cnf 71 215
-1 3 5 9 11 13 14 16 17 18 43 -2 22 46 0 
-3 1 5 9 11 13 14 16 17 18 43 46 0 
-4 12 26 46 0 
-5 1 3 9 11 13 14 16 17 18 43 46 0 
-6 -7 47 0 
-7 48 0 
-8 48 0 
-6 -8 47 0 
-8 -7 47 0 
-7 47 0 
-6 -7 48 0 
-8 -7 48 0 
-6 47 0 
-2 22 49 0 
-2 22 50 0 
-2 22 51 0 
-2 22 52 0 
-6 48 0 
-8 -9 1 3 5 11 13 14 16 17 18 43 47 0 
-9 1 3 5 11 13 14 16 17 18 43 48 0 
-10 35 -6 47 0 
-6 -3 1 5 9 11 13 14 16 17 18 43 -2 22 46 0 
-4 12 26 53 0 
-3 1 5 9 11 13 14 16 17 18 43 -2 22 54 0 
-10 35 -11 1 3 5 9 13 14 16 17 18 43 46 0 
-12 4 26 -1 3 5 9 11 13 14 16 17 18 43 46 0 
-10 35 -1 3 5 9 11 13 14 16 17 18 43 46 0 
-8 -3 1 5 9 11 13 14 16 17 18 43 46 0 
-6 -11 1 3 5 9 13 14 16 17 18 43 46 0 
-8 -5 1 3 9 11 13 14 16 17 18 43 46 0 
-12 4 26 -1 3 5 9 11 13 14 16 17 18 43 54 0 
-8 -11 1 3 5 9 13 14 16 17 18 43 54 0 
-7 -1 3 5 9 11 13 14 16 17 18 43 46 0 
-8 -11 1 3 5 9 13 14 16 17 18 43 46 0 
-7 -5 1 3 9 11 13 14 16 17 18 43 46 0 
-8 -13 1 3 5 9 11 14 16 17 18 43 46 0 
-8 47 0 
-3 1 5 9 11 13 14 16 17 18 43 54 0 
-1 3 5 9 11 13 14 16 17 18 43 54 0 
-11 1 3 5 9 13 14 16 17 18 43 54 0 
-13 1 3 5 9 11 14 16 17 18 43 54 0 
-14 1 3 5 9 11 13 16 17 18 43 47 0 
-5 1 3 9 11 13 14 16 17 18 43 54 0 
-8 -12 4 26 48 0 
-15 47 0 
-7 -3 1 5 9 11 13 14 16 17 18 43 54 0 
-10 35 -16 1 3 5 9 11 13 14 17 18 43 48 0 
-6 -17 1 3 5 9 11 13 14 16 18 43 48 0 
-7 -18 1 3 5 9 11 13 14 16 17 43 48 0 
-6 -14 1 3 5 9 11 13 16 17 18 43 48 0 
-7 -4 12 26 48 0 
-8 -3 1 5 9 11 13 14 16 17 18 43 54 0 
-6 -12 4 26 48 0 
-3 1 5 9 11 13 14 16 17 18 43 54 0 
-7 47 0 
-5 1 3 9 11 13 14 16 17 18 43 54 0 
-7 -5 1 3 9 11 13 14 16 17 18 43 54 0 
-6 -4 12 26 54 0 
-6 -1 3 5 9 11 13 14 16 17 18 43 54 0 
-6 -11 1 3 5 9 13 14 16 17 18 43 54 0 
-6 -5 1 3 9 11 13 14 16 17 18 43 54 0 
-11 1 3 5 9 13 14 16 17 18 43 46 0 
-1 3 5 9 11 13 14 16 17 18 43 46 0 
-7 -3 1 5 9 11 13 14 16 17 18 43 46 0 
-8 -6 47 0 
-6 47 0 
-6 -19 -20 23 33 36 -21 54 0 
-19 -20 23 33 36 -21 54 0 
-6 -19 -21 54 0 
-2 22 55 0 
-2 22 56 0 
-2 22 57 0 
-22 2 -23 20 33 36 52 0 
-24 25 28 30 31 32 37 39 41 42 44 46 0 
-19 -2 22 46 0 
-12 4 26 -16 1 3 5 9 11 13 14 17 18 43 -2 22 54 0 
-6 -1 3 5 9 11 13 14 16 17 18 43 -2 22 54 0 
-25 24 28 30 31 32 37 39 41 42 44 46 0 
-19 -25 24 28 30 31 32 37 39 41 42 44 54 0 
-8 -5 1 3 9 11 13 14 16 17 18 43 -2 22 54 0 
-5 1 3 9 11 13 14 16 17 18 43 -2 22 46 0 
-7 -1 3 5 9 11 13 14 16 17 18 43 -2 22 54 0 
-16 1 3 5 9 11 13 14 17 18 43 -26 4 12 54 0 
-6 -3 1 5 9 11 13 14 16 17 18 43 54 0 
-2 22 -19 49 0 
-27 49 0 
-26 4 12 46 0 
-16 1 3 5 9 11 13 14 17 18 43 46 0 
-25 24 28 30 31 32 37 39 41 42 44 54 0 
-7 -11 1 3 5 9 13 14 16 17 18 43 46 0 
-15 48 0 
-16 1 3 5 9 11 13 14 17 18 43 47 0 
-5 1 3 9 11 13 14 16 17 18 43 -4 12 26 58 0 
-5 1 3 9 11 13 14 16 17 18 43 -4 12 26 59 0 
-5 1 3 9 11 13 14 16 17 18 43 -4 12 26 60 0 
-28 24 25 30 31 32 37 39 41 42 44 54 0 
-12 4 26 -5 1 3 9 11 13 14 16 17 18 43 -2 22 54 0 
-22 2 -19 61 0 
-4 12 26 53 0 
-7 -4 12 26 62 0 
-12 4 26 -2 22 46 0 
-6 -12 4 26 -2 22 54 0 
-29 54 0 
-30 24 25 28 31 32 37 39 41 42 44 46 0 
-31 24 25 28 30 32 37 39 41 42 44 46 0 
-12 4 26 -1 3 5 9 11 13 14 16 17 18 43 -2 22 54 0 
-19 46 0 
-12 4 26 -2 22 54 0 
-32 24 25 28 30 31 37 39 41 42 44 54 0 
-33 20 23 36 -2 22 46 0 
-34 -35 10 -23 20 33 36 61 0 
-6 -5 1 3 9 11 13 14 16 17 18 43 -2 22 54 0 
-1 3 5 9 11 13 14 16 17 18 43 -2 22 54 0 
-11 1 3 5 9 13 14 16 17 18 43 -2 22 54 0 
-7 -11 1 3 5 9 13 14 16 17 18 43 -2 22 46 0 
-8 -1 3 5 9 11 13 14 16 17 18 43 -2 22 46 0 
-16 1 3 5 9 11 13 14 17 18 43 -26 4 12 46 0 
-6 -3 1 5 9 11 13 14 16 17 18 43 46 0 
-33 20 23 36 54 0 
-8 -1 3 5 9 11 13 14 16 17 18 43 46 0 
-22 2 54 0 
-12 4 26 -16 1 3 5 9 11 13 14 17 18 43 46 0 
-16 1 3 5 9 11 13 14 17 18 43 54 0 
-2 22 63 0 
-2 22 64 0 
-8 -6 48 0 
-36 20 23 33 54 0 
-7 -12 4 26 48 0 
-6 -8 48 0 
-7 -12 4 26 47 0 
-2 22 65 0 
-37 24 25 28 30 31 32 39 41 42 44 54 0 
-3 1 5 9 11 13 14 16 17 18 43 -2 22 46 0 
-7 -3 1 5 9 11 13 14 16 17 18 43 -2 22 54 0 
-16 1 3 5 9 11 13 14 17 18 43 -4 12 26 46 0 
-7 -6 48 0 
-12 4 26 -3 1 5 9 11 13 14 16 17 18 43 46 0 
-19 54 0 
-6 -17 1 3 5 9 11 13 14 16 18 43 -2 22 46 0 
-7 -14 1 3 5 9 11 13 16 17 18 43 -2 22 46 0 
-26 4 12 -2 22 66 0 
-26 4 12 -2 22 67 0 
-38 47 0 
-19 61 0 
-12 4 26 -11 1 3 5 9 13 14 16 17 18 43 -2 22 46 0 
-19 -22 2 46 0 
-22 2 -19 54 0 
-19 -22 2 68 0 
-2 22 54 0 
-39 24 25 28 30 31 32 37 41 42 44 46 0 
-39 24 25 28 30 31 32 37 41 42 44 54 0 
-5 1 3 9 11 13 14 16 17 18 43 69 0 
-5 1 3 9 11 13 14 16 17 18 43 -4 12 26 70 0 
-34 71 0 
-18 1 3 5 9 11 13 14 16 17 43 -4 12 26 54 0 
-7 54 0 
-6 -8 46 0 
-6 -17 1 3 5 9 11 13 14 16 18 43 -2 22 54 0 
-17 1 3 5 9 11 13 14 16 18 43 -2 22 46 0 
-8 -18 1 3 5 9 11 13 14 16 17 43 -2 22 46 0 
-33 20 23 36 -2 22 54 0 
-22 2 -19 -23 20 33 36 51 0 
-22 2 -19 -23 20 33 36 49 0 
-7 -4 12 26 53 0 
-4 12 26 62 0 
-8 -14 1 3 5 9 11 13 16 17 18 43 54 0 
-14 1 3 5 9 11 13 16 17 18 43 46 0 
-6 -3 1 5 9 11 13 14 16 17 18 43 -2 22 54 0 
-40 1 3 5 9 11 13 14 16 17 18 43 47 0 
-12 4 26 -3 1 5 9 11 13 14 16 17 18 43 -2 22 54 0 
-7 -1 3 5 9 11 13 14 16 17 18 43 54 0 
-36 20 23 33 -2 22 46 0 
-7 -11 1 3 5 9 13 14 16 17 18 43 54 0 
-16 1 3 5 9 11 13 14 17 18 43 -4 12 26 54 0 
-41 24 25 28 30 31 32 37 39 42 44 54 0 
-6 -5 1 3 9 11 13 14 16 17 18 43 -2 22 46 0 
-12 4 26 -1 3 5 9 11 13 14 16 17 18 43 -2 22 46 0 
-42 24 25 28 30 31 32 37 39 41 44 54 0 
-27 51 0 
-27 63 0 
-7 -1 3 5 9 11 13 14 16 17 18 43 -2 22 46 0 
-43 1 3 5 9 11 13 14 16 17 18 -2 22 48 0 
-4 12 26 47 0 
-7 -11 1 3 5 9 13 14 16 17 18 43 -2 22 54 0 
-44 24 25 28 30 31 32 37 39 41 42 46 0 
-25 24 28 30 31 32 37 39 41 42 44 46 0 
-25 24 28 30 31 32 37 39 41 42 44 54 0 
-6 -1 3 5 9 11 13 14 16 17 18 43 46 0 
-33 20 23 36 46 0 
-5 1 3 9 11 13 14 16 17 18 43 -2 22 54 0 
-8 -5 1 3 9 11 13 14 16 17 18 43 -2 22 46 0 
-12 4 26 -16 1 3 5 9 11 13 14 17 18 43 -2 22 46 0 
-18 1 3 5 9 11 13 14 16 17 43 -26 4 12 -2 22 54 0 
-31 24 25 28 30 32 37 39 41 42 44 54 0 
-31 24 25 28 30 32 37 39 41 42 44 46 0 
-34 -2 22 48 0 
-20 23 33 36 -2 22 54 0 
-7 -17 1 3 5 9 11 13 14 16 18 43 -2 22 46 0 
-19 -2 22 54 0 
-20 23 33 36 -19 -2 22 46 0 
-8 -34 -2 22 47 0 
-11 1 3 5 9 13 14 16 17 18 43 -2 22 46 0 
-14 1 3 5 9 11 13 16 17 18 43 -4 12 26 -2 22 54 0 
-34 -11 1 3 5 9 13 14 16 17 18 43 -2 22 54 0 
-10 35 -1 3 5 9 11 13 14 16 17 18 43 -45 54 0 
-12 4 26 -16 1 3 5 9 11 13 14 17 18 43 54 0 
-8 -4 12 26 54 0 
-8 -26 4 12 54 0 
-6 -11 1 3 5 9 13 14 16 17 18 43 -2 22 54 0 
-16 1 3 5 9 11 13 14 17 18 43 -2 22 46 0 
-8 -16 1 3 5 9 11 13 14 17 18 43 -2 22 54 0 
-41 24 25 28 30 31 32 37 39 42 44 54 0 
-8 -4 12 26 62 0 
-38 48 0 
-38 -15 48 0 
